c User generated cnf file
p cnf 14 24
8 -3 9 0 
6 6 -3 0 
14 -6 2 0 
-4 9 7 0 
13 3 -5 0 
5 14 -12 0 
14 4 -8 0 
3 6 -6 0 
-10 6 2 0 
14 -13 7 0 
6 4 -11 0 
-10 6 11 0 
-8 2 7 0 
14 -8 9 0 
10 -5 3 0 
2 10 -2 0 
11 4 -14 0 
9 13 -8 0 
12 -4 5 0 
14 -10 5 0 
11 3 -8 0 
1 -8 13 0 
-3 2 7 0 
13 6 -5 0 
